(set-option :produce-models true)
(set-logic QF_LRA)
(set-info :notes | Strip-packing problem.|)
(declare-fun x0 () Real)
(declare-fun y0 () Real)
(declare-fun x1 () Real)
(declare-fun y1 () Real)
(declare-fun x2 () Real)
(declare-fun y2 () Real)
(declare-fun x3 () Real)
(declare-fun y3 () Real)
(declare-fun x4 () Real)
(declare-fun y4 () Real)
(declare-fun x5 () Real)
(declare-fun y5 () Real)
(declare-fun x6 () Real)
(declare-fun y6 () Real)
(declare-fun x7 () Real)
(declare-fun y7 () Real)
(declare-fun x8 () Real)
(declare-fun y8 () Real)
(declare-fun z () Real)
(declare-fun c () Real)
(assert (and (= c z) (and (>= x0 0) 
(and (>= y0 0) 
(and (>= x1 0) 
(and (>= y1 0) 
(and (>= x2 0) 
(and (>= y2 0) 
(and (>= x3 0) 
(and (>= y3 0) 
(and (>= x4 0) 
(and (>= y4 0) 
(and (>= x5 0) 
(and (>= y5 0) 
(and (>= x6 0) 
(and (>= y6 0) 
(and (>= x7 0) 
(and (>= y7 0) 
(and (>= x8 0) 
(and (>= y8 0) 
(and (>= z 0) 
(and (>= c 0) 
(and (<= (+ x0 0.0999623073) z) 
(and (<= 0.9280097493 y0) 
(and (<= y0 1.0) 
(and (<= x0 (- 3.3662215864 0.0999623073)) 
(and (>= x0 0) 
(and (<= (+ x1 0.9542606752) z) 
(and (<= 0.8870974916 y1) 
(and (<= y1 1.0) 
(and (<= x1 (- 3.3662215864 0.9542606752)) 
(and (>= x1 0) 
(and (<= (+ x2 0.4390845711) z) 
(and (<= 0.735958001 y2) 
(and (<= y2 1.0) 
(and (<= x2 (- 3.3662215864 0.4390845711)) 
(and (>= x2 0) 
(and (<= (+ x3 0.5852560007) z) 
(and (<= 0.7122998274 y3) 
(and (<= y3 1.0) 
(and (<= x3 (- 3.3662215864 0.5852560007)) 
(and (>= x3 0) 
(and (<= (+ x4 0.155287659) z) 
(and (<= 0.556228977 y4) 
(and (<= y4 1.0) 
(and (<= x4 (- 3.3662215864 0.155287659)) 
(and (>= x4 0) 
(and (<= (+ x5 0.4712734413) z) 
(and (<= 0.4487408033 y5) 
(and (<= y5 1.0) 
(and (<= x5 (- 3.3662215864 0.4712734413)) 
(and (>= x5 0) 
(and (<= (+ x6 0.3443278263) z) 
(and (<= 0.3766196691 y6) 
(and (<= y6 1.0) 
(and (<= x6 (- 3.3662215864 0.3443278263)) 
(and (>= x6 0) 
(and (<= (+ x7 0.6610969318) z) 
(and (<= 0.3605043856 y7) 
(and (<= y7 1.0) 
(and (<= x7 (- 3.3662215864 0.6610969318)) 
(and (>= x7 0) 
(and (<= (+ x8 0.4716503714) z) 
(and (<= 0.1413451423 y8) 
(and (<= y8 1.0) 
(and (<= x8 (- 3.3662215864 0.4716503714)) 
(and (>= x8 0) 
(and (<= c 3.3662215864) 
(and (or (<= (+ x0 0.0999623073) x1) (or (<= (+ x1 0.9542606752) x0) (or (>= (- y0 0.9280097493) y1) (or (>= (- y1 0.8870974916) y0))))) 
(and (or (<= (+ x0 0.0999623073) x2) (or (<= (+ x2 0.4390845711) x0) (or (>= (- y0 0.9280097493) y2) (or (>= (- y2 0.735958001) y0))))) 
(and (or (<= (+ x0 0.0999623073) x3) (or (<= (+ x3 0.5852560007) x0) (or (>= (- y0 0.9280097493) y3) (or (>= (- y3 0.7122998274) y0))))) 
(and (or (<= (+ x0 0.0999623073) x4) (or (<= (+ x4 0.155287659) x0) (or (>= (- y0 0.9280097493) y4) (or (>= (- y4 0.556228977) y0))))) 
(and (or (<= (+ x0 0.0999623073) x5) (or (<= (+ x5 0.4712734413) x0) (or (>= (- y0 0.9280097493) y5) (or (>= (- y5 0.4487408033) y0))))) 
(and (or (<= (+ x0 0.0999623073) x6) (or (<= (+ x6 0.3443278263) x0) (or (>= (- y0 0.9280097493) y6) (or (>= (- y6 0.3766196691) y0))))) 
(and (or (<= (+ x0 0.0999623073) x7) (or (<= (+ x7 0.6610969318) x0) (or (>= (- y0 0.9280097493) y7) (or (>= (- y7 0.3605043856) y0))))) 
(and (or (<= (+ x0 0.0999623073) x8) (or (<= (+ x8 0.4716503714) x0) (or (>= (- y0 0.9280097493) y8) (or (>= (- y8 0.1413451423) y0))))) 
(and (or (<= (+ x1 0.9542606752) x2) (or (<= (+ x2 0.4390845711) x1) (or (>= (- y1 0.8870974916) y2) (or (>= (- y2 0.735958001) y1))))) 
(and (or (<= (+ x1 0.9542606752) x3) (or (<= (+ x3 0.5852560007) x1) (or (>= (- y1 0.8870974916) y3) (or (>= (- y3 0.7122998274) y1))))) 
(and (or (<= (+ x1 0.9542606752) x4) (or (<= (+ x4 0.155287659) x1) (or (>= (- y1 0.8870974916) y4) (or (>= (- y4 0.556228977) y1))))) 
(and (or (<= (+ x1 0.9542606752) x5) (or (<= (+ x5 0.4712734413) x1) (or (>= (- y1 0.8870974916) y5) (or (>= (- y5 0.4487408033) y1))))) 
(and (or (<= (+ x1 0.9542606752) x6) (or (<= (+ x6 0.3443278263) x1) (or (>= (- y1 0.8870974916) y6) (or (>= (- y6 0.3766196691) y1))))) 
(and (or (<= (+ x1 0.9542606752) x7) (or (<= (+ x7 0.6610969318) x1) (or (>= (- y1 0.8870974916) y7) (or (>= (- y7 0.3605043856) y1))))) 
(and (or (<= (+ x1 0.9542606752) x8) (or (<= (+ x8 0.4716503714) x1) (or (>= (- y1 0.8870974916) y8) (or (>= (- y8 0.1413451423) y1))))) 
(and (or (<= (+ x2 0.4390845711) x3) (or (<= (+ x3 0.5852560007) x2) (or (>= (- y2 0.735958001) y3) (or (>= (- y3 0.7122998274) y2))))) 
(and (or (<= (+ x2 0.4390845711) x4) (or (<= (+ x4 0.155287659) x2) (or (>= (- y2 0.735958001) y4) (or (>= (- y4 0.556228977) y2))))) 
(and (or (<= (+ x2 0.4390845711) x5) (or (<= (+ x5 0.4712734413) x2) (or (>= (- y2 0.735958001) y5) (or (>= (- y5 0.4487408033) y2))))) 
(and (or (<= (+ x2 0.4390845711) x6) (or (<= (+ x6 0.3443278263) x2) (or (>= (- y2 0.735958001) y6) (or (>= (- y6 0.3766196691) y2))))) 
(and (or (<= (+ x2 0.4390845711) x7) (or (<= (+ x7 0.6610969318) x2) (or (>= (- y2 0.735958001) y7) (or (>= (- y7 0.3605043856) y2))))) 
(and (or (<= (+ x2 0.4390845711) x8) (or (<= (+ x8 0.4716503714) x2) (or (>= (- y2 0.735958001) y8) (or (>= (- y8 0.1413451423) y2))))) 
(and (or (<= (+ x3 0.5852560007) x4) (or (<= (+ x4 0.155287659) x3) (or (>= (- y3 0.7122998274) y4) (or (>= (- y4 0.556228977) y3))))) 
(and (or (<= (+ x3 0.5852560007) x5) (or (<= (+ x5 0.4712734413) x3) (or (>= (- y3 0.7122998274) y5) (or (>= (- y5 0.4487408033) y3))))) 
(and (or (<= (+ x3 0.5852560007) x6) (or (<= (+ x6 0.3443278263) x3) (or (>= (- y3 0.7122998274) y6) (or (>= (- y6 0.3766196691) y3))))) 
(and (or (<= (+ x3 0.5852560007) x7) (or (<= (+ x7 0.6610969318) x3) (or (>= (- y3 0.7122998274) y7) (or (>= (- y7 0.3605043856) y3))))) 
(and (or (<= (+ x3 0.5852560007) x8) (or (<= (+ x8 0.4716503714) x3) (or (>= (- y3 0.7122998274) y8) (or (>= (- y8 0.1413451423) y3))))) 
(and (or (<= (+ x4 0.155287659) x5) (or (<= (+ x5 0.4712734413) x4) (or (>= (- y4 0.556228977) y5) (or (>= (- y5 0.4487408033) y4))))) 
(and (or (<= (+ x4 0.155287659) x6) (or (<= (+ x6 0.3443278263) x4) (or (>= (- y4 0.556228977) y6) (or (>= (- y6 0.3766196691) y4))))) 
(and (or (<= (+ x4 0.155287659) x7) (or (<= (+ x7 0.6610969318) x4) (or (>= (- y4 0.556228977) y7) (or (>= (- y7 0.3605043856) y4))))) 
(and (or (<= (+ x4 0.155287659) x8) (or (<= (+ x8 0.4716503714) x4) (or (>= (- y4 0.556228977) y8) (or (>= (- y8 0.1413451423) y4))))) 
(and (or (<= (+ x5 0.4712734413) x6) (or (<= (+ x6 0.3443278263) x5) (or (>= (- y5 0.4487408033) y6) (or (>= (- y6 0.3766196691) y5))))) 
(and (or (<= (+ x5 0.4712734413) x7) (or (<= (+ x7 0.6610969318) x5) (or (>= (- y5 0.4487408033) y7) (or (>= (- y7 0.3605043856) y5))))) 
(and (or (<= (+ x5 0.4712734413) x8) (or (<= (+ x8 0.4716503714) x5) (or (>= (- y5 0.4487408033) y8) (or (>= (- y8 0.1413451423) y5))))) 
(and (or (<= (+ x6 0.3443278263) x7) (or (<= (+ x7 0.6610969318) x6) (or (>= (- y6 0.3766196691) y7) (or (>= (- y7 0.3605043856) y6))))) 
(and (or (<= (+ x6 0.3443278263) x8) (or (<= (+ x8 0.4716503714) x6) (or (>= (- y6 0.3766196691) y8) (or (>= (- y8 0.1413451423) y6))))) 
(and (or (<= (+ x7 0.6610969318) x8) (or (<= (+ x8 0.4716503714) x7) (or (>= (- y7 0.3605043856) y8) (or (>= (- y8 0.1413451423) y7))))) ))))))))))))))))))))))))))))))))))))))))))))))))))))))))))))))))))))))))))))))))))))))))))))))))))))))))
(minimize c)
(check-sat)
(get-objectives)
(exit)
